DATASET = "thpack5";
INSTANCE = "100";

WIDTH = 233;
HEIGHT = 220;
LENGTH = 587;

NO_OF_SHAPES = 12;
size = [|
  78,49,47 |
  46,45,43 |
  98,44,36 |
  100,89,31 |
  108,76,47 |
  75,36,28 |
  108,82,56 |
  45,41,24 |
  103,48,38 |
  74,62,46 |
  96,56,44 |
  117,64,42 |
|];

verticality = [|
  1,1,1 |
  1,1,1 |
  0,1,1 |
  0,0,1 |
  0,1,1 |
  0,1,1 |
  1,1,1 |
  1,1,1 |
  0,1,1 |
  1,1,1 |
  0,1,1 |
  0,1,1 |
|];

box_count = [
  8,
  13,
  10,
  11,
  7,
  12,
  16,
  14,
  11,
  10,
  10,
  13,
];
